22      4       
10      10      10      10      
0       0       0       0       0       4       2       3       4       5       
5       2       2       1       5       2       13      18      
3       7       7       2       10      2       11      19      
4       1       7       7       5       3       18      19      20      
1       2       5       9       3       1       6       
7       5       10      1       9       1       7       
1       3       9       2       7       1       8       
5       1       9       3       1       1       9       
2       2       3       3       2       1       10      
7       5       2       2       4       3       11      13      14      
8       10      10      1       10      1       12      
5       2       7       7       9       2       18      20      
3       2       2       6       4       2       15      16      
1       5       10      9       10      3       15      16      18      
7       5       8       4       4       1       17      
10      1       10      3       8       3       19      20      21      
1       9       8       3       5       3       19      20      21      
9       2       6       7       3       1       21      
3       6       4       7       3       1       22      
4       8       5       4       10      1       22      
6       4       9       7       5       1       22      
0       0       0       0       0       0       
